p wcnf 189 378 379 
1 35 144 0 
1 -103 -25 0 
1 -139 -103 0 
1 61 -112 0 
1 -120 38 0 
1 174 -64 0 
1 73 -83 0 
1 -133 -183 0 
1 -30 48 0 
1 -21 83 0 
1 97 -51 0 
1 154 25 0 
1 -83 177 0 
1 -118 -107 0 
1 -165 -16 0 
1 -36 41 0 
1 43 -73 0 
1 -86 -23 0 
1 158 153 0 
1 -108 -45 0 
1 -139 164 0 
1 -3 -160 0 
1 -3 -52 0 
1 102 82 0 
1 91 13 0 
1 70 -138 0 
1 -47 136 0 
1 118 -81 0 
1 58 -40 0 
1 163 -21 0 
1 -118 -183 0 
1 187 161 0 
1 -86 -162 0 
1 132 -24 0 
1 -37 -99 0 
1 103 118 0 
1 -28 154 0 
1 110 96 0 
1 159 74 0 
1 175 -35 0 
1 159 129 0 
1 13 72 0 
1 -142 -162 0 
1 -37 -188 0 
1 4 73 0 
1 -91 79 0 
1 -100 184 0 
1 188 52 0 
1 -135 -56 0 
1 176 111 0 
1 52 -183 0 
1 173 -166 0 
1 72 -177 0 
1 40 -27 0 
1 88 -59 0 
1 -54 -169 0 
1 48 167 0 
1 133 141 0 
1 15 58 0 
1 71 -26 0 
1 65 159 0 
1 137 -73 0 
1 -27 65 0 
1 -150 -154 0 
1 103 -88 0 
1 -76 80 0 
1 -134 -169 0 
1 74 -95 0 
1 -43 133 0 
1 158 111 0 
1 -27 118 0 
1 63 78 0 
1 90 108 0 
1 146 135 0 
1 169 -25 0 
1 -34 149 0 
1 72 -22 0 
1 -5 58 0 
1 -169 -184 0 
1 -45 -74 0 
1 -90 -66 0 
1 153 35 0 
1 -170 -114 0 
1 -52 65 0 
1 -24 -117 0 
1 141 -129 0 
1 -19 -22 0 
1 -84 49 0 
1 161 53 0 
1 -90 -3 0 
1 132 -32 0 
1 -80 -11 0 
1 189 -87 0 
1 2 -17 0 
1 147 82 0 
1 -61 -150 0 
1 -29 17 0 
1 -94 -147 0 
1 -52 16 0 
1 69 -82 0 
1 -148 -15 0 
1 -116 -32 0 
1 -119 -180 0 
1 79 -178 0 
1 -156 52 0 
1 165 -180 0 
1 -146 -165 0 
1 -93 -17 0 
1 66 121 0 
1 -67 11 0 
1 14 -136 0 
1 102 -114 0 
1 29 -1 0 
1 -186 73 0 
1 59 -114 0 
1 -5 172 0 
1 -33 143 0 
1 116 -145 0 
1 -109 152 0 
1 61 118 0 
1 144 108 0 
1 -80 5 0 
1 51 179 0 
1 -114 68 0 
1 -46 -66 0 
1 111 -109 0 
1 3 -177 0 
1 132 -137 0 
1 -73 166 0 
1 -73 44 0 
1 18 -96 0 
1 1 144 0 
1 84 -155 0 
1 -68 120 0 
1 -39 -5 0 
1 -137 95 0 
1 160 19 0 
1 11 -139 0 
1 -23 100 0 
1 -47 -159 0 
1 162 -84 0 
1 164 122 0 
1 -91 -4 0 
1 134 -78 0 
1 157 -121 0 
1 -56 102 0 
1 103 -37 0 
1 -113 -31 0 
1 -123 -71 0 
1 -55 -147 0 
1 -97 116 0 
1 34 -99 0 
1 169 122 0 
1 -46 -92 0 
1 -129 27 0 
1 147 -86 0 
1 146 -57 0 
1 -147 36 0 
1 -129 -143 0 
1 10 162 0 
1 -8 3 0 
1 -170 13 0 
1 -1 -48 0 
1 -7 -163 0 
1 116 -86 0 
1 27 -106 0 
1 -48 168 0 
1 102 -73 0 
1 -7 -177 0 
1 187 21 0 
1 -16 106 0 
1 101 -73 0 
1 -113 59 0 
1 -116 -102 0 
1 36 -12 0 
1 172 178 0 
1 32 119 0 
1 -60 32 0 
1 -14 52 0 
1 -74 -106 0 
1 22 165 0 
1 18 -130 0 
1 159 -43 0 
1 104 -181 0 
1 -33 81 0 
1 -49 143 0 
1 38 120 0 
1 -56 -124 0 
1 -39 37 0 
1 50 -54 0 
1 27 169 0 
1 117 33 0 
1 -18 189 0 
1 110 -11 0 
1 -184 -56 0 
1 -7 -6 0 
1 91 -81 0 
1 -91 167 0 
1 -148 169 0 
1 5 -96 0 
1 -120 82 0 
1 -80 28 0 
1 4 163 0 
1 14 -130 0 
1 118 -23 0 
1 95 -166 0 
1 -97 -103 0 
1 186 -51 0 
1 -9 -14 0 
1 169 -69 0 
1 87 18 0 
1 95 31 0 
1 180 -57 0 
1 25 104 0 
1 113 60 0 
1 -169 187 0 
1 -1 -163 0 
1 -178 -45 0 
1 -6 -180 0 
1 30 156 0 
1 -173 10 0 
1 18 116 0 
1 -110 144 0 
1 94 3 0 
1 4 -47 0 
1 -76 104 0 
1 46 -17 0 
1 -86 74 0 
1 -44 -90 0 
1 -2 -43 0 
1 188 -140 0 
1 167 -41 0 
1 -58 -120 0 
1 -32 -19 0 
1 -163 185 0 
1 -63 158 0 
1 -96 159 0 
1 42 -182 0 
1 130 -72 0 
1 71 1 0 
1 69 -180 0 
1 -30 31 0 
1 -183 135 0 
1 119 51 0 
1 -153 108 0 
1 93 165 0 
1 41 52 0 
1 44 176 0 
1 148 111 0 
1 -102 -144 0 
1 -113 -170 0 
1 -133 -146 0 
1 -187 -72 0 
1 31 -133 0 
1 -154 -92 0 
1 185 -130 0 
1 16 151 0 
1 -134 -85 0 
1 -159 -32 0 
1 -113 -12 0 
1 146 -70 0 
1 -146 -114 0 
1 92 78 0 
1 25 84 0 
1 -112 92 0 
1 -154 173 0 
1 -157 -113 0 
1 -8 44 0 
1 -163 -98 0 
1 146 -67 0 
1 -32 -167 0 
1 137 47 0 
1 50 -184 0 
1 -34 -67 0 
1 -91 -164 0 
1 143 47 0 
1 121 -48 0 
1 -5 3 0 
1 156 -98 0 
1 109 -178 0 
1 176 -177 0 
1 -88 -102 0 
1 -44 19 0 
1 105 -143 0 
1 -154 -145 0 
1 120 -70 0 
1 -74 -138 0 
1 -90 -166 0 
1 -180 -105 0 
1 73 109 0 
1 -106 -70 0 
1 -97 55 0 
1 -107 41 0 
1 13 -84 0 
1 85 -40 0 
1 -148 -31 0 
1 -99 -172 0 
1 29 -114 0 
1 121 -103 0 
1 2 179 0 
1 -104 -47 0 
1 20 -25 0 
1 -157 -36 0 
1 -145 52 0 
1 -100 -21 0 
1 -56 -33 0 
1 -167 12 0 
1 -60 -85 0 
1 -71 41 0 
1 160 180 0 
1 34 127 0 
1 -22 -186 0 
1 -31 164 0 
1 -174 -171 0 
1 136 168 0 
1 177 -108 0 
1 63 112 0 
1 53 -44 0 
1 188 71 0 
1 98 185 0 
1 29 -160 0 
1 -101 -81 0 
1 -101 -22 0 
1 -27 177 0 
1 13 42 0 
1 124 150 0 
1 -166 136 0 
1 23 108 0 
1 189 -63 0 
1 161 -2 0 
1 -14 -7 0 
1 106 138 0 
1 113 85 0 
1 25 -56 0 
1 -116 24 0 
1 -122 171 0 
1 -124 178 0 
1 164 -112 0 
1 -44 -42 0 
1 47 -119 0 
1 -147 -138 0 
1 139 149 0 
1 -140 141 0 
1 55 98 0 
1 92 19 0 
1 6 9 0 
1 41 -150 0 
1 -120 95 0 
1 -113 -180 0 
1 155 104 0 
1 56 -61 0 
1 -134 -66 0 
1 -130 -39 0 
1 27 143 0 
1 -67 47 0 
1 -107 -24 0 
1 34 -136 0 
1 77 -105 0 
1 30 -42 0 
1 77 146 0 
1 -168 50 0 
1 20 160 0 
1 127 -189 0 
1 -3 41 0 
1 -165 -6 0 
1 -37 -130 0 
1 -179 -55 0 
1 -60 185 0 
1 -68 -171 0 
1 18 132 0 
1 162 -144 0 
1 111 -56 0 
1 -149 -54 0 
1 -107 50 0 
1 -71 34 0 
1 -148 -46 0 
1 91 100 0 
1 54 81 0 
